NAME : Instance 48
COMMENT : Comment 48
TYPE : TSP
DIMENSION: 30
EDGE_WEIGHT_TYPE : EUC_2D
NODE_COORD_SECTION
  1 1476 398
  2 222 299
  3 1291 97
  4 864 1406
  5 466 1118
  6 1872 1731
  7 966 1183
  8 1428 1566
  9 1956 1232
  10 691 984
  11 1000 50
  12 1390 1635
  13 872 1382
  14 745 760
  15 443 285
  16 832 782
  17 1457 1588
  18 1115 1681
  19 1954 611
  20 1960 124
  21 1223 386
  22 1553 1871
  23 735 1766
  24 194 725
  25 1096 607
  26 266 128
  27 1403 1732
  28 798 1566
  29 288 1257
  30 1782 1534
EOF
